
Gurobi 10.0.3 (linux64, gurobi_cl) logging started Thu Nov  2 11:35:18 2023

Set parameter Username
Set parameter TimeLimit to value 3600
Set parameter LogFile to value "RCPSP_659.log"
Set parameter Threads to value 32
Academic license - for non-commercial use only - expires 2024-10-30
Using license file /home/jrivera6/gurobi-licenses/v1003/compute-0-39/gurobi.lic

Gurobi Optimizer version 10.0.3 build v10.0.3rc0 (linux64)
Copyright (c) 2023, Gurobi Optimization, LLC

Read MPS format model from file RCPSP_659.mps
Reading time = 0.02 seconds
RCPSP_659: 19643 rows, 7750 columns, 60937 nonzeros

CPU model: Intel(R) Xeon(R) Gold 6242 CPU @ 2.80GHz, instruction set [SSE2|AVX|AVX2|AVX512]
Thread count: 32 physical cores, 32 logical processors, using up to 32 threads

Optimize a model with 19643 rows, 7750 columns and 60937 nonzeros
Model fingerprint: 0xd49902ac
Variable types: 62 continuous, 7688 integer (7688 binary)
Coefficient statistics:
  Matrix range     [1e+00, 3e+02]
  Objective range  [1e+00, 1e+00]
  Bounds range     [1e+00, 1e+00]
  RHS range        [1e+00, 3e+02]
Presolve removed 7959 rows and 2907 columns
Presolve time: 3.05s
Presolved: 11684 rows, 4843 columns, 37265 nonzeros
Variable types: 61 continuous, 4782 integer (4782 binary)

Root relaxation: objective 6.900000e+01, 1553 iterations, 0.02 seconds (0.01 work units)

    Nodes    |    Current Node    |     Objective Bounds      |     Work
 Expl Unexpl |  Obj  Depth IntInf | Incumbent    BestBd   Gap | It/Node Time

     0     0   69.00000    0    2          -   69.00000      -     -    3s
     0     0   69.00000    0    2          -   69.00000      -     -    6s
     0     0   69.00000    0    2          -   69.00000      -     -    6s
     0     0   69.00000    0    3          -   69.00000      -     -    7s
     0     0   69.00000    0    4          -   69.00000      -     -    7s
     0     0   69.00000    0    4          -   69.00000      -     -    7s
H    0     0                      69.0000000   69.00000  0.00%     -    7s
     0     0   69.00000    0   12   69.00000   69.00000  0.00%     -    7s

Cutting planes:
  Gomory: 1
  Cover: 1
  Implied bound: 15
  MIR: 3
  RLT: 24
  Relax-and-lift: 9

Explored 1 nodes (4104 simplex iterations) in 7.60 seconds (3.07 work units)
Thread count was 32 (of 32 available processors)

Solution count 1: 69 

Optimal solution found (tolerance 1.00e-04)
Best objective 6.900000000000e+01, best bound 6.900000000000e+01, gap 0.0000%

Wrote result file 'RCPSP_659.sol'

